n= 20; m= 6;


83	50	10	63	27	82	91	39	20	93	42	67	76	40	26	85	1	56	38	66
1	61	80	73	27	32	35	66	9	52	37	72	13	45	42	88	61	20	68	40
53	82	42	81	5	23	67	34	28	86	37	18	30	12	66	89	37	17	74	18
63	33	87	91	45	17	29	12	49	48	56	80	40	41	26	63	22	17	53	7
88	41	82	68	42	14	37	91	13	2	70	84	55	77	70	67	62	21	43	2
53	82	42	81	5	23	67	34	28	86	37	18	30	12	66	89	37	17	74	18





